\ENCODING=ISO-8859-1
\Problem name: ilog.cplex

Maximize
 obj: 16 x_ijk_0_0_0 + 16 x_ijk_0_0_1 + 16 x_ijk_0_0_2 + 16 x_ijk_0_0_3
      + 10 x_ijk_0_1_0 + 10 x_ijk_0_1_1 + 10 x_ijk_0_1_2 + 10 x_ijk_0_1_3
      + 7 x_ijk_1_0_0 + 7 x_ijk_1_0_1 + 7 x_ijk_1_0_2 + 7 x_ijk_1_0_3
      + 17 x_ijk_1_1_0 + 17 x_ijk_1_1_1 + 17 x_ijk_1_1_2 + 17 x_ijk_1_1_3
      + 12 x_ijk_1_2_0 + 12 x_ijk_1_2_1 + 12 x_ijk_1_2_2 + 12 x_ijk_1_2_3
      + 7 x_ijk_2_0_0 + 7 x_ijk_2_0_1 + 7 x_ijk_2_0_2 + 7 x_ijk_2_0_3
      + 12 x_ijk_2_1_0 + 12 x_ijk_2_1_1 + 12 x_ijk_2_1_2 + 12 x_ijk_2_1_3
      + 20 x_ijk_3_0_0 + 20 x_ijk_3_0_1 + 20 x_ijk_3_0_2 + 20 x_ijk_3_0_3
      + 9 x_ijk_3_1_0 + 9 x_ijk_3_1_1 + 9 x_ijk_3_1_2 + 9 x_ijk_3_1_3
      + 10 x_ijk_3_2_0 + 10 x_ijk_3_2_1 + 10 x_ijk_3_2_2 + 10 x_ijk_3_2_3
      + 15 x_ijk_4_0_0 + 15 x_ijk_4_0_1 + 15 x_ijk_4_0_2 + 15 x_ijk_4_0_3
      + 16 x_ijk_4_1_0 + 16 x_ijk_4_1_1 + 16 x_ijk_4_1_2 + 16 x_ijk_4_1_3
      + 20 x_ijk_4_2_0 + 20 x_ijk_4_2_1 + 20 x_ijk_4_2_2 + 20 x_ijk_4_2_3
      + x_ijk_4_3_0 + x_ijk_4_3_1 + x_ijk_4_3_2 + x_ijk_4_3_3 + 19 x_ijk_5_0_0
      + 19 x_ijk_5_0_1 + 19 x_ijk_5_0_2 + 19 x_ijk_5_0_3 + 16 x_ijk_5_1_0
      + 16 x_ijk_5_1_1 + 16 x_ijk_5_1_2 + 16 x_ijk_5_1_3 + 19 x_ijk_5_2_0
      + 19 x_ijk_5_2_1 + 19 x_ijk_5_2_2 + 19 x_ijk_5_2_3 + 20 x_ijk_6_0_0
      + 20 x_ijk_6_0_1 + 20 x_ijk_6_0_2 + 20 x_ijk_6_0_3 + 8 x_ijk_6_1_0
      + 8 x_ijk_6_1_1 + 8 x_ijk_6_1_2 + 8 x_ijk_6_1_3 + 15 x_ijk_6_2_0
      + 15 x_ijk_6_2_1 + 15 x_ijk_6_2_2 + 15 x_ijk_6_2_3
Subject To
 c1:  19 x_ijk_0_0_0 + 37 x_ijk_0_1_0 + 27 x_ijk_1_0_0 + 3 x_ijk_1_1_0
      + 8 x_ijk_1_2_0 + 4 x_ijk_2_0_0 + 6 x_ijk_2_1_0 + 32 x_ijk_3_0_0
      + 6 x_ijk_3_1_0 + 25 x_ijk_3_2_0 + 4 x_ijk_4_0_0 + 27 x_ijk_4_1_0
      + 16 x_ijk_4_2_0 + 2 x_ijk_4_3_0 + 5 x_ijk_5_0_0 + 37 x_ijk_5_1_0
      + x_ijk_5_2_0 + 38 x_ijk_6_0_0 + 27 x_ijk_6_1_0 + 35 x_ijk_6_2_0 - Rgc1
       = -2147483647
 c2:  23 x_ijk_0_0_1 + 14 x_ijk_0_1_1 + 2 x_ijk_1_0_1 + 27 x_ijk_1_1_1
      + 4 x_ijk_1_2_1 + 33 x_ijk_2_0_1 + 19 x_ijk_2_1_1 + 25 x_ijk_3_0_1
      + 29 x_ijk_3_1_1 + 29 x_ijk_3_2_1 + 34 x_ijk_4_0_1 + 10 x_ijk_4_1_1
      + 11 x_ijk_4_2_1 + 32 x_ijk_4_3_1 + 19 x_ijk_5_0_1 + 32 x_ijk_5_1_1
      + 29 x_ijk_5_2_1 + 39 x_ijk_6_0_1 + 20 x_ijk_6_1_1 + 6 x_ijk_6_2_1 - Rgc2
       = -2147483647
 c3:  37 x_ijk_0_0_2 + 22 x_ijk_0_1_2 + 6 x_ijk_1_0_2 + 21 x_ijk_1_1_2
      + 37 x_ijk_1_2_2 + 24 x_ijk_2_0_2 + 13 x_ijk_2_1_2 + 2 x_ijk_3_0_2
      + 40 x_ijk_3_1_2 + 38 x_ijk_3_2_2 + 20 x_ijk_4_0_2 + 5 x_ijk_4_1_2
      + 37 x_ijk_4_2_2 + 26 x_ijk_4_3_2 + 40 x_ijk_5_0_2 + 11 x_ijk_5_1_2
      + 10 x_ijk_5_2_2 + 18 x_ijk_6_0_2 + 35 x_ijk_6_1_2 + 36 x_ijk_6_2_2
      - Rgc3  = -2147483647
 c4:  25 x_ijk_0_0_3 + 36 x_ijk_0_1_3 + 14 x_ijk_1_0_3 + 33 x_ijk_1_1_3
      + 12 x_ijk_1_2_3 + 32 x_ijk_2_0_3 + 29 x_ijk_2_1_3 + 12 x_ijk_3_0_3
      + 34 x_ijk_3_1_3 + x_ijk_3_2_3 + 26 x_ijk_4_0_3 + 2 x_ijk_4_1_3
      + 6 x_ijk_4_2_3 + 35 x_ijk_4_3_3 + 26 x_ijk_5_0_3 + 30 x_ijk_5_1_3
      + 18 x_ijk_5_2_3 + 29 x_ijk_6_0_3 + 22 x_ijk_6_1_3 + 25 x_ijk_6_2_3
      - Rgc4  = -2147483647
 c5:  x_ijk_0_0_0 + x_ijk_0_1_0 - Rgc5  = -2147483647
 c6:  x_ijk_0_0_1 + x_ijk_0_1_1 - Rgc6  = -2147483647
 c7:  x_ijk_0_0_2 + x_ijk_0_1_2 - Rgc7  = -2147483647
 c8:  x_ijk_0_0_3 + x_ijk_0_1_3 - Rgc8  = -2147483647
 c9:  x_ijk_1_0_0 + x_ijk_1_1_0 + x_ijk_1_2_0 - Rgc9  = -2147483647
 c10: x_ijk_1_0_1 + x_ijk_1_1_1 + x_ijk_1_2_1 - Rgc10  = -2147483647
 c11: x_ijk_1_0_2 + x_ijk_1_1_2 + x_ijk_1_2_2 - Rgc11  = -2147483647
 c12: x_ijk_1_0_3 + x_ijk_1_1_3 + x_ijk_1_2_3 - Rgc12  = -2147483647
 c13: x_ijk_2_0_0 + x_ijk_2_1_0 - Rgc13  = -2147483647
 c14: x_ijk_2_0_1 + x_ijk_2_1_1 - Rgc14  = -2147483647
 c15: x_ijk_2_0_2 + x_ijk_2_1_2 - Rgc15  = -2147483647
 c16: x_ijk_2_0_3 + x_ijk_2_1_3 - Rgc16  = -2147483647
 c17: x_ijk_3_0_0 + x_ijk_3_1_0 + x_ijk_3_2_0 - Rgc17  = -2147483647
 c18: x_ijk_3_0_1 + x_ijk_3_1_1 + x_ijk_3_2_1 - Rgc18  = -2147483647
 c19: x_ijk_3_0_2 + x_ijk_3_1_2 + x_ijk_3_2_2 - Rgc19  = -2147483647
 c20: x_ijk_3_0_3 + x_ijk_3_1_3 + x_ijk_3_2_3 - Rgc20  = -2147483647
 c21: x_ijk_4_0_0 + x_ijk_4_1_0 + x_ijk_4_2_0 + x_ijk_4_3_0 - Rgc21
       = -2147483647
 c22: x_ijk_4_0_1 + x_ijk_4_1_1 + x_ijk_4_2_1 + x_ijk_4_3_1 - Rgc22
       = -2147483647
 c23: x_ijk_4_0_2 + x_ijk_4_1_2 + x_ijk_4_2_2 + x_ijk_4_3_2 - Rgc23
       = -2147483647
 c24: x_ijk_4_0_3 + x_ijk_4_1_3 + x_ijk_4_2_3 + x_ijk_4_3_3 - Rgc24
       = -2147483647
 c25: x_ijk_5_0_0 + x_ijk_5_1_0 + x_ijk_5_2_0 - Rgc25  = -2147483647
 c26: x_ijk_5_0_1 + x_ijk_5_1_1 + x_ijk_5_2_1 - Rgc26  = -2147483647
 c27: x_ijk_5_0_2 + x_ijk_5_1_2 + x_ijk_5_2_2 - Rgc27  = -2147483647
 c28: x_ijk_5_0_3 + x_ijk_5_1_3 + x_ijk_5_2_3 - Rgc28  = -2147483647
 c29: x_ijk_6_0_0 + x_ijk_6_1_0 + x_ijk_6_2_0 - Rgc29  = -2147483647
 c30: x_ijk_6_0_1 + x_ijk_6_1_1 + x_ijk_6_2_1 - Rgc30  = -2147483647
 c31: x_ijk_6_0_2 + x_ijk_6_1_2 + x_ijk_6_2_2 - Rgc31  = -2147483647
 c32: x_ijk_6_0_3 + x_ijk_6_1_3 + x_ijk_6_2_3 - Rgc32  = -2147483647
Bounds
 0 <= x_ijk_0_0_0 <= 1
 0 <= x_ijk_0_0_1 <= 1
 0 <= x_ijk_0_0_2 <= 1
 0 <= x_ijk_0_0_3 <= 1
 0 <= x_ijk_0_1_0 <= 1
 0 <= x_ijk_0_1_1 <= 1
 0 <= x_ijk_0_1_2 <= 1
 0 <= x_ijk_0_1_3 <= 1
 0 <= x_ijk_1_0_0 <= 1
 0 <= x_ijk_1_0_1 <= 1
 0 <= x_ijk_1_0_2 <= 1
 0 <= x_ijk_1_0_3 <= 1
 0 <= x_ijk_1_1_0 <= 1
 0 <= x_ijk_1_1_1 <= 1
 0 <= x_ijk_1_1_2 <= 1
 0 <= x_ijk_1_1_3 <= 1
 0 <= x_ijk_1_2_0 <= 1
 0 <= x_ijk_1_2_1 <= 1
 0 <= x_ijk_1_2_2 <= 1
 0 <= x_ijk_1_2_3 <= 1
 0 <= x_ijk_2_0_0 <= 1
 0 <= x_ijk_2_0_1 <= 1
 0 <= x_ijk_2_0_2 <= 1
 0 <= x_ijk_2_0_3 <= 1
 0 <= x_ijk_2_1_0 <= 1
 0 <= x_ijk_2_1_1 <= 1
 0 <= x_ijk_2_1_2 <= 1
 0 <= x_ijk_2_1_3 <= 1
 0 <= x_ijk_3_0_0 <= 1
 0 <= x_ijk_3_0_1 <= 1
 0 <= x_ijk_3_0_2 <= 1
 0 <= x_ijk_3_0_3 <= 1
 0 <= x_ijk_3_1_0 <= 1
 0 <= x_ijk_3_1_1 <= 1
 0 <= x_ijk_3_1_2 <= 1
 0 <= x_ijk_3_1_3 <= 1
 0 <= x_ijk_3_2_0 <= 1
 0 <= x_ijk_3_2_1 <= 1
 0 <= x_ijk_3_2_2 <= 1
 0 <= x_ijk_3_2_3 <= 1
 0 <= x_ijk_4_0_0 <= 1
 0 <= x_ijk_4_0_1 <= 1
 0 <= x_ijk_4_0_2 <= 1
 0 <= x_ijk_4_0_3 <= 1
 0 <= x_ijk_4_1_0 <= 1
 0 <= x_ijk_4_1_1 <= 1
 0 <= x_ijk_4_1_2 <= 1
 0 <= x_ijk_4_1_3 <= 1
 0 <= x_ijk_4_2_0 <= 1
 0 <= x_ijk_4_2_1 <= 1
 0 <= x_ijk_4_2_2 <= 1
 0 <= x_ijk_4_2_3 <= 1
 0 <= x_ijk_4_3_0 <= 1
 0 <= x_ijk_4_3_1 <= 1
 0 <= x_ijk_4_3_2 <= 1
 0 <= x_ijk_4_3_3 <= 1
 0 <= x_ijk_5_0_0 <= 1
 0 <= x_ijk_5_0_1 <= 1
 0 <= x_ijk_5_0_2 <= 1
 0 <= x_ijk_5_0_3 <= 1
 0 <= x_ijk_5_1_0 <= 1
 0 <= x_ijk_5_1_1 <= 1
 0 <= x_ijk_5_1_2 <= 1
 0 <= x_ijk_5_1_3 <= 1
 0 <= x_ijk_5_2_0 <= 1
 0 <= x_ijk_5_2_1 <= 1
 0 <= x_ijk_5_2_2 <= 1
 0 <= x_ijk_5_2_3 <= 1
 0 <= x_ijk_6_0_0 <= 1
 0 <= x_ijk_6_0_1 <= 1
 0 <= x_ijk_6_0_2 <= 1
 0 <= x_ijk_6_0_3 <= 1
 0 <= x_ijk_6_1_0 <= 1
 0 <= x_ijk_6_1_1 <= 1
 0 <= x_ijk_6_1_2 <= 1
 0 <= x_ijk_6_1_3 <= 1
 0 <= x_ijk_6_2_0 <= 1
 0 <= x_ijk_6_2_1 <= 1
 0 <= x_ijk_6_2_2 <= 1
 0 <= x_ijk_6_2_3 <= 1
 0 <= Rgc1 <= 2147483698
 0 <= Rgc2 <= 2147483736
 0 <= Rgc3 <= 2147483707
 0 <= Rgc4 <= 2147483746
 0 <= Rgc5 <= 2147483648
 0 <= Rgc6 <= 2147483648
 0 <= Rgc7 <= 2147483648
 0 <= Rgc8 <= 2147483648
 0 <= Rgc9 <= 2147483648
 0 <= Rgc10 <= 2147483648
 0 <= Rgc11 <= 2147483648
 0 <= Rgc12 <= 2147483648
 0 <= Rgc13 <= 2147483648
 0 <= Rgc14 <= 2147483648
 0 <= Rgc15 <= 2147483648
 0 <= Rgc16 <= 2147483648
 0 <= Rgc17 <= 2147483648
 0 <= Rgc18 <= 2147483648
 0 <= Rgc19 <= 2147483648
 0 <= Rgc20 <= 2147483648
 0 <= Rgc21 <= 2147483648
 0 <= Rgc22 <= 2147483648
 0 <= Rgc23 <= 2147483648
 0 <= Rgc24 <= 2147483648
 0 <= Rgc25 <= 2147483648
 0 <= Rgc26 <= 2147483648
 0 <= Rgc27 <= 2147483648
 0 <= Rgc28 <= 2147483648
 0 <= Rgc29 <= 2147483648
 0 <= Rgc30 <= 2147483648
 0 <= Rgc31 <= 2147483648
 0 <= Rgc32 <= 2147483648
Generals
 x_ijk_0_0_0  x_ijk_0_0_1  x_ijk_0_0_2  x_ijk_0_0_3  x_ijk_0_1_0  x_ijk_0_1_1 
 x_ijk_0_1_2  x_ijk_0_1_3  x_ijk_1_0_0  x_ijk_1_0_1  x_ijk_1_0_2  x_ijk_1_0_3 
 x_ijk_1_1_0  x_ijk_1_1_1  x_ijk_1_1_2  x_ijk_1_1_3  x_ijk_1_2_0  x_ijk_1_2_1 
 x_ijk_1_2_2  x_ijk_1_2_3  x_ijk_2_0_0  x_ijk_2_0_1  x_ijk_2_0_2  x_ijk_2_0_3 
 x_ijk_2_1_0  x_ijk_2_1_1  x_ijk_2_1_2  x_ijk_2_1_3  x_ijk_3_0_0  x_ijk_3_0_1 
 x_ijk_3_0_2  x_ijk_3_0_3  x_ijk_3_1_0  x_ijk_3_1_1  x_ijk_3_1_2  x_ijk_3_1_3 
 x_ijk_3_2_0  x_ijk_3_2_1  x_ijk_3_2_2  x_ijk_3_2_3  x_ijk_4_0_0  x_ijk_4_0_1 
 x_ijk_4_0_2  x_ijk_4_0_3  x_ijk_4_1_0  x_ijk_4_1_1  x_ijk_4_1_2  x_ijk_4_1_3 
 x_ijk_4_2_0  x_ijk_4_2_1  x_ijk_4_2_2  x_ijk_4_2_3  x_ijk_4_3_0  x_ijk_4_3_1 
 x_ijk_4_3_2  x_ijk_4_3_3  x_ijk_5_0_0  x_ijk_5_0_1  x_ijk_5_0_2  x_ijk_5_0_3 
 x_ijk_5_1_0  x_ijk_5_1_1  x_ijk_5_1_2  x_ijk_5_1_3  x_ijk_5_2_0  x_ijk_5_2_1 
 x_ijk_5_2_2  x_ijk_5_2_3  x_ijk_6_0_0  x_ijk_6_0_1  x_ijk_6_0_2  x_ijk_6_0_3 
 x_ijk_6_1_0  x_ijk_6_1_1  x_ijk_6_1_2  x_ijk_6_1_3  x_ijk_6_2_0  x_ijk_6_2_1 
 x_ijk_6_2_2  x_ijk_6_2_3 
End
